Route #1: 108 27 1 46 79 30 85
Route #2: 62 117 55 36 63 118 40 22 68 25 109
Route #3: 95 58 80 41 65 47 94
Route #4: 26 93
Route #5: 101 64 77 7 107 4
Route #6: 20 29 104 71 119
Route #7: 69 98 72
Route #8: 67 32 10
Route #9: 121 54 91 21
Route #10: 84 53 39 8
Route #11: 18 45
Route #12: 113 33 5
Route #13: 120 75
Route #14: 12 37
Route #15: 35 103
Route #16: 100 57 48
Route #17: 111 86
Route #18: 61 83 122
Route #19: 76 110 73
Route #20: 99 112
Route #21: 96 38
Route #22: 60 90 102
Route #23: 3 31
Route #24: 106 43 16 81 42 123
Route #25: 9 19 11 114 87 92 74
Route #26: 52 44 97 14 49 24
Route #27: 78 124 2 34 6 70 59 28 13
Route #28: 17 15 50 116 66 23
Route #29: 82 56
Route #30: 51 105 89 88 115
